(set-info :smt-lib-version 2.6)
(set-logic QF_BV)
(set-info :source |
 Patrice Godefroid, SAGE (systematic dynamic test generation)
 For more information: http://research.microsoft.com/en-us/um/people/pg/public_psfiles/ndss2008.pdf
|)
(set-info :category "industrial")
(set-info :status sat)
(declare-fun T1_4840 () (_ BitVec 8))
(declare-fun T2_4448 () (_ BitVec 16))
(declare-fun T1_4439 () (_ BitVec 8))
(declare-fun T2_4842 () (_ BitVec 16))
(declare-fun T1_4844 () (_ BitVec 8))
(declare-fun T1_4842 () (_ BitVec 8))
(declare-fun T1_4843 () (_ BitVec 8))
(declare-fun T1_4448 () (_ BitVec 8))
(declare-fun T1_4449 () (_ BitVec 8))
(assert (let ((?v_3 ((_ zero_extend 24) T1_4840)) (?v_1 ((_ zero_extend 24) T1_4439))) (let ((?v_0 (bvadd ?v_1 (_ bv1 32)))) (let ((?v_2 (bvadd (bvadd ?v_0 (_ bv4267230 32)) ((_ zero_extend 16) T2_4448)))) (let ((?v_4 (bvadd ?v_2 (_ bv6 32)))) (let ((?v_7 (bvadd ?v_4 (bvadd ?v_3 (_ bv1 32))))) (let ((?v_8 (bvadd ?v_7 (_ bv2 32))) (?v_6 ((_ zero_extend 16) T2_4842)) (?v_5 ((_ zero_extend 24) T1_4844))) (and true (= T2_4448 (bvor (bvshl ((_ zero_extend 8) T1_4449) (_ bv8 16)) ((_ zero_extend 8) T1_4448))) (= T2_4842 (bvor (bvshl ((_ zero_extend 8) T1_4843) (_ bv8 16)) ((_ zero_extend 8) T1_4842))) (bvult (_ bv4268054 32) (bvadd (bvadd ?v_8 ?v_5) (_ bv2 32))) (bvule (bvadd (bvadd ?v_0 (_ bv4267228 32)) (_ bv2 32)) (_ bv4268054 32)) (not (= ?v_1 (_ bv1 32))) (bvule (bvsub ?v_2 (_ bv4267208 32)) (_ bv846 32)) (not (= ?v_3 (_ bv0 32))) (= ?v_3 (_ bv1 32)) (bvule (bvadd ?v_4 (_ bv1 32)) (_ bv4268054 32)) (not (= (bvadd ?v_6 (bvsub (_ bv4294967295 32) ?v_5)) (_ bv0 32))) (not (= ?v_6 (_ bv0 32))) (bvule (bvadd ?v_7 (_ bv3 32)) (_ bv4268054 32)) (bvule (bvadd ?v_5 (_ bv1 32)) ?v_6) (bvule ?v_8 (_ bv4268054 32))))))))))
(check-sat)
(exit)
